
Log started (V12.10.0.0) Fri Apr  2 11:15:09 2021

Warning, line 1765: Name 's230' does not exist.
Warning, line 1767: Name 's264' does not exist.
Warning, line 1768: Name 's45' does not exist.
Warning, line 1769: Name 's103' does not exist.
Warning, line 1771: Name 's263' does not exist.
Warning, line 1772: Name 's178' does not exist.

Problem 'asset.lp' read.
Read time = 0.01 sec. (0.14 ticks)
New value for default parallel thread count: 1
New value for time limit in seconds: 400
Version identifier: 12.10.0.0 | 2019-11-26 | 843d4de
CPXPARAM_Threads                                 1
CPXPARAM_TimeLimit                               400
Found incumbent of value -0.876435 after 0.00 sec. (0.06 ticks)
Tried aggregator 4 times.
MIP Presolve eliminated 729 rows and 170 columns.
MIP Presolve modified 823 coefficients.
Aggregator did 341 substitutions.
Reduced MIP has 393 rows, 475 columns, and 1823 nonzeros.
Reduced MIP has 418 binaries, 25 generals, 0 SOSs, and 0 indicators.
Presolve time = 0.01 sec. (5.73 ticks)
Probing fixed 172 vars, tightened 12 bounds.
Probing time = 0.00 sec. (1.79 ticks)
Cover probing fixed 0 vars, tightened 79 bounds.
Tried aggregator 2 times.
MIP Presolve eliminated 256 rows and 237 columns.
MIP Presolve modified 18 coefficients.
Aggregator did 14 substitutions.
Reduced MIP has 123 rows, 222 columns, and 597 nonzeros.
Reduced MIP has 191 binaries, 10 generals, 0 SOSs, and 0 indicators.
Presolve time = 0.00 sec. (1.82 ticks)
Probing time = 0.00 sec. (0.53 ticks)
Cover probing fixed 0 vars, tightened 2 bounds.
Tried aggregator 1 time.
Detecting symmetries...
MIP Presolve eliminated 14 rows and 14 columns.
Reduced MIP has 109 rows, 208 columns, and 522 nonzeros.
Reduced MIP has 177 binaries, 10 generals, 0 SOSs, and 0 indicators.
Presolve time = 0.00 sec. (0.70 ticks)
Probing time = 0.00 sec. (0.47 ticks)
Clique table members: 410.
MIP emphasis: balance optimality and feasibility.
MIP search method: dynamic search.
Parallel mode: none, using 1 thread.
Root relaxation solution time = 0.00 sec. (0.55 ticks)

        Nodes                                         Cuts/
   Node  Left     Objective  IInf  Best Integer    Best Bound    ItCnt     Gap

*     0+    0                           -0.8764      683.1300              --- 
      0     0      249.1337    15       -0.8764      249.1337       72     --- 
*     0+    0                          249.1304      249.1337             0.00%

Root node processing (before b&c):
  Real time             =    0.02 sec. (12.85 ticks)
Sequential b&c:
  Real time             =    0.00 sec. (0.00 ticks)
                          ------------
Total (root+branch&cut) =    0.02 sec. (12.85 ticks)

Solution pool: 2 solutions saved.

MIP - Integer optimal, tolerance (0.0001/1e-06):  Objective =  2.4913039098e+02
Current MIP best bound =  2.4913371148e+02 (gap = 0.0033205, 0.00%)
Solution time =    0.02 sec.  Iterations = 72  Nodes = 0 (1)
Deterministic time = 12.85 ticks  (761.53 ticks/sec)


Incumbent solution
Variable Name           Solution Value
F                           260.000000
f1                            0.889609
f2                            9.980000
y197                          1.000000
y219                          1.000000
y66                           1.000000
y23                           1.000000
y37                           1.000000
y93                           1.000000
y82                           1.000000
s197                          4.897789
s67                           4.130000
s157                          4.140000
s50                           4.150000
s30                           4.210000
s143                          4.240000
s190                          4.240000
s119                          4.270000
s130                          4.340000
s100                          4.350000
s177                          4.430000
s55                           4.440000
s78                           4.480000
s236                          4.550000
s158                          4.690000
s149                          4.790000
s219                          5.517613
s246                          4.960000
s255                          5.080000
s66                           5.393983
s173                          5.240000
s23                           5.379260
s94                           5.330000
s37                           5.839807
s93                           5.904186
s203                          5.410000
s27                           5.450000
s164                          5.480000
s96                           5.490000
s141                          5.500000
s186                          5.550000
s216                          5.610000
s182                          5.620000
s251                          5.620000
s160                          5.630000
s234                          5.630000
s63                           5.730000
s82                           5.974333
s117                          5.960000
x238x23x1                     1.000000
x256x219x2                    1.000000
x256x93x2                     1.000000
x131x37x2                     1.000000
x131x82x2                     1.000000
x222x197x2                    1.000000
x14x23x2                      1.000000
x238x197x2                    1.000000
x262x66x3                     1.000000
x262x82x3                     1.000000
x213x93x3                     1.000000
x249x66x3                     1.000000
x127x219x3                    1.000000
x14x37x3                      1.000000
x197x0x2                      2.000000
x219x0x2                      1.000000
x219x0x3                      1.000000
x66x0x3                       2.000000
x23x0x1                       1.000000
x23x0x2                       1.000000
x37x0x2                       1.000000
x37x0x3                       1.000000
x93x0x2                       1.000000
x93x0x3                       1.000000
x82x0x2                       1.000000
x82x0x3                       1.000000
s262                          4.042349
z262z66z3                     1.000000
z262z182z3                    1.000000
z262z82z3                     1.000000
s256                          4.218215
z256z219z2                    1.000000
z256z93z2                     1.000000
z256z63z2                     1.000000
s213                          4.715025
z213z93z3                     1.000000
s131                          4.152153
z131z37z2                     1.000000
z131z82z2                     1.000000
s249                          3.434980
z249z66z3                     1.000000
z249z96z3                     1.000000
z249z182z3                    1.000000
s127                          3.584590
z127z219z3                    1.000000
z127z96z3                     1.000000
z127z182z3                    1.000000
s222                          3.653110
z222z197z2                    1.000000
z222z186z2                    1.000000
z222z63z2                     1.000000
s14                           3.684940
z14z23z2                      1.000000
z14z94z2                      1.000000
z14z37z3                      1.000000
z14z96z3                      1.000000
z14z186z2                     1.000000
z14z182z3                     1.000000
z14z63z2                      1.000000
s238                          3.661830
z238z197z2                    1.000000
z238z23z1                     1.000000
z238z94z2                     1.000000
z238z186z2                    1.000000
z238z234z1                    1.000000
z238z63z2                     1.000000
All other variables in the range 1-995 are 0.
